c Random generated cnf formula, satisfiable: true
p cnf 10 50
10 6 1 0
2 -9 8 0
-6 -10 -1 0
8 1 -10 0
6 9 -7 0
6 2 -8 0
2 -7 -5 0
-2 4 10 0
-4 8 1 0
10 8 1 0
7 6 5 0
9 -2 7 0
-7 -4 -6 0
-2 -5 -4 0
3 8 6 0
-4 6 -5 0
3 2 9 0
1 2 -7 0
7 4 -8 0
3 5 8 0
-4 2 -3 0
-7 -4 5 0
2 4 3 0
-2 4 6 0
2 -9 1 0
9 -4 8 0
4 -6 3 0
-1 3 -10 0
-4 -7 9 0
-7 2 4 0
4 3 -8 0
8 -6 -1 0
-6 8 3 0
-7 4 6 0
4 3 -6 0
-6 -7 10 0
-6 -9 1 0
-10 -3 6 0
8 9 5 0
5 1 -8 0
-5 -4 -1 0
-1 8 -9 0
2 3 -1 0
9 5 -2 0
6 -8 -10 0
4 2 7 0
-3 6 -10 0
2 -3 -10 0
9 4 -5 0
7 1 5 0
